nbNodes = 32;
nbVehi = 10;
nbServi = 6;


e = 
 [0,  179,  102,  144,  254,   57,   17,  295,  402,  158,   61,  242,  162,   63,  171,   43,  118,  400,  138,  262,  340,   56,  170,  189,  425,  315,  220,  298,  426,   50,  258,    0,];

l = 
 [480, 252, 196, 234, 348, 143, 124, 394, 487, 253, 162, 322, 252, 183, 247, 118, 194, 460, 244, 323, 414, 150, 265, 259, 507, 414, 322, 409, 495, 170, 372, 480,
 ];
a = 
 [|  1,  0,  1,  0,  1,  1,
 |  1,  1,  1,  1,  1,  1,
 |  1,  1,  1,  1,  1,  1,
 |  1,  0,  1,  1,  1,  1,
 |  0,  1,  0,  1,  1,  1,
 |  1,  1,  1,  1,  1,  1,
 |  1,  1,  1,  1,  1,  1,
 |  1,  1,  1,  1,  1,  1,
 |  1,  1,  1,  1,  1,  1,
 |  1,  0,  1,  1,  1,  1,
 |];

p = array3d(1..nbNodes,1..nbVehi,1..nbServi,
[  0,  0,  0,  0,  0,  0,	  0,  0,  0,  0,  0,  0,	  0,  0,  0,  0,  0,  0,	  0,  0,  0,  0,  0,  0,	  0,  0,  0,  0,  0,  0,	  0,  0,  0,  0,  0,  0,	  0,  0,  0,  0,  0,  0,	  0,  0,  0,  0,  0,  0,	  0,  0,  0,  0,  0,  0,	  0,  0,  0,  0,  0,  0,	
 14, 15, 14, 13, 12, 12,	 18, 16, 11, 10, 21, 20,	 19, 11, 23, 23, 16, 20,	 22, 23, 10, 13, 21, 21,	 19, 19, 12, 10, 22, 15,	 20, 18, 21, 16, 14, 15,	 10, 14, 21, 11, 14, 17,	 13, 15, 18, 12, 13, 17,	 22, 17, 15, 15, 21, 19,	 18, 22, 13, 20, 22, 17,	
 11, 12, 15, 17, 16, 13,	 16, 13, 14, 19, 19, 13,	 17, 11, 13, 15, 13, 14,	 16, 21, 16, 21, 15, 19,	 10, 17, 13, 14, 19, 20,	 16, 20, 11, 13, 16, 21,	 16, 14, 12, 12, 12, 13,	 20, 19, 15, 15, 16, 10,	 19, 14, 13, 17, 18, 18,	 14, 18, 13, 21, 14, 10,	
 12, 21, 13, 13, 12, 19,	 12, 11, 11, 18, 17, 17,	 14, 15, 15, 11, 20, 13,	 15, 10, 18, 19, 17, 14,	 15, 14, 14, 11, 17, 19,	 11, 19, 10, 18, 10, 16,	 15, 16, 21, 21, 17, 17,	 16, 21, 14, 13, 14, 17,	 21, 19, 21, 17, 16, 16,	 13, 10, 12, 21, 11, 20,	
 18, 16, 17, 18, 13, 10,	 17, 10, 16, 16, 13, 11,	 15, 20, 14, 20, 15, 18,	 19, 14, 16, 18, 13, 10,	 16, 16, 14, 19, 20, 19,	 17, 16, 18, 16, 17, 13,	 16, 12, 13, 15, 18, 17,	 16, 12, 19, 13, 14, 12,	 21, 15, 17, 19, 15, 20,	 12, 13, 19, 16, 10, 17,	
 12, 27, 21, 14, 22, 22,	 23, 26, 16, 12, 19, 25,	 25, 12, 13, 26, 21, 21,	 17, 18, 18, 16, 22, 23,	 18, 18, 14, 19, 16, 13,	 24, 18, 10, 18, 20, 20,	 10, 15, 19, 17, 18, 10,	 12, 13, 12, 13, 12, 21,	 24, 17, 12, 12, 21, 22,	 25, 11, 10, 27, 19, 16,	
 16, 21, 17, 11, 21, 21,	 15, 10, 21, 16, 21, 15,	 15, 11, 10, 17, 14, 16,	 15, 14, 11, 15, 16, 14,	 15, 17, 16, 21, 20, 13,	 19, 15, 16, 14, 20, 16,	 14, 17, 20, 17, 12, 11,	 14, 17, 16, 14, 16, 20,	 21, 13, 16, 14, 18, 14,	 19, 11, 13, 17, 14, 11,	
 19, 18, 19, 22, 20, 14,	 20, 21, 22, 12, 18, 19,	 14, 12, 14, 20, 17, 14,	 21, 11, 12, 15, 14, 13,	 22, 16, 11, 21, 17, 11,	 16, 15, 19, 14, 15, 19,	 19, 14, 17, 20, 17, 13,	 18, 21, 17, 22, 19, 11,	 15, 19, 14, 17, 12, 21,	 10, 11, 14, 11, 12, 11,	
 12, 17, 17, 16, 11, 13,	 14, 10, 16, 18, 17, 15,	 20, 10, 11, 12, 16, 15,	 17, 10, 13, 12, 10, 14,	 12, 10, 14, 10, 19, 13,	 10, 14, 20, 10, 20, 14,	 13, 16, 14, 19, 12, 14,	 16, 15, 14, 10, 21, 13,	 15, 16, 13, 10, 18, 13,	 18, 12, 18, 11, 13, 15,	
 22, 21, 13, 23, 15, 15,	 21, 11, 23, 21, 22, 16,	 11, 15, 21, 16, 15, 18,	 19, 10, 18, 14, 11, 17,	 21, 23, 11, 21, 16, 22,	 19, 15, 20, 20, 12, 23,	 10, 21, 10, 23, 18, 23,	 13, 18, 12, 22, 10, 15,	 14, 19, 13, 23, 21, 14,	 16, 18, 12, 15, 16, 18,	
 12, 13, 15, 20, 21, 17,	 15, 17, 14, 14, 11, 15,	 21, 20, 11, 15, 11, 11,	 12, 21, 18, 13, 10, 15,	 12, 18, 21, 12, 20, 17,	 18, 10, 20, 12, 12, 12,	 19, 17, 11, 16, 13, 16,	 21, 16, 15, 10, 21, 20,	 15, 15, 19, 15, 19, 12,	 20, 13, 20, 11, 19, 10,	
 17, 20, 18, 13, 18, 16,	 15, 15, 10, 16, 11, 10,	 14, 19, 18, 22, 16, 19,	 22, 21, 19, 13, 18, 21,	 13, 20, 17, 15, 16, 13,	 20, 10, 12, 17, 16, 21,	 11, 10, 13, 13, 16, 16,	 13, 10, 14, 10, 22, 22,	 20, 22, 20, 18, 14, 17,	 16, 17, 16, 12, 22, 11,	
 21, 14, 18, 16, 10, 10,	 15, 12, 19, 15, 20, 16,	 10, 13, 18, 11, 19, 10,	 14, 20, 19, 16, 14, 14,	 10, 14, 21, 18, 15, 11,	 10, 18, 15, 18, 12, 15,	 10, 18, 21, 19, 11, 19,	 13, 16, 15, 21, 21, 12,	 14, 14, 10, 11, 12, 18,	 16, 13, 10, 19, 21, 19,	
 16, 23, 13, 14, 11, 21,	 13, 19, 21, 13, 17, 11,	 22, 10, 11, 13, 20, 22,	 19, 20, 16, 11, 15, 15,	 13, 13, 10, 23, 17, 17,	 22, 23, 15, 23, 11, 16,	 21, 15, 10, 16, 16, 15,	 17, 14, 15, 18, 16, 11,	 17, 11, 19, 23, 11, 11,	 12, 14, 12, 12, 12, 19,	
 18, 10, 19, 23, 22, 20,	 13, 19, 23, 11, 11, 13,	 16, 17, 18, 22, 11, 22,	 21, 18, 21, 15, 16, 22,	 14, 18, 13, 16, 19, 15,	 12, 13, 13, 19, 10, 11,	 13, 13, 18, 11, 13, 18,	 14, 19, 11, 20, 15, 12,	 16, 11, 19, 14, 16, 23,	 12, 20, 15, 15, 12, 22,	
 10, 14, 21, 18, 11, 21,	 25, 25, 11, 12, 12, 24,	 16, 14, 15, 17, 17, 21,	 13, 19, 16, 14, 19, 12,	 15, 24, 10, 13, 21, 10,	 19, 22, 15, 15, 14, 16,	 10, 13, 15, 11, 15, 17,	 25, 21, 22, 15, 12, 13,	 10, 16, 22, 16, 20, 16,	 18, 10, 14, 18, 13, 25,	
 14, 14, 17, 19, 19, 21,	 18, 12, 13, 11, 21, 18,	 11, 21, 18, 19, 18, 20,	 18, 14, 18, 14, 16, 13,	 12, 20, 17, 20, 16, 12,	 16, 12, 20, 15, 14, 18,	 19, 10, 20, 10, 15, 11,	 18, 16, 14, 14, 13, 14,	 17, 13, 18, 17, 18, 12,	 20, 20, 10, 15, 11, 20,	
 21, 21, 15, 20, 14, 19,	 20, 11, 11, 10, 11, 20,	 15, 12, 19, 20, 16, 14,	 16, 15, 18, 13, 11, 14,	 15, 21, 16, 20, 15, 17,	 10, 18, 16, 15, 20, 13,	 16, 18, 14, 21, 10, 20,	 20, 20, 10, 21, 10, 20,	 13, 16, 14, 21, 19, 15,	 13, 17, 18, 20, 19, 15,	
 19, 19, 12, 14, 17, 10,	 21, 15, 11, 13, 15, 15,	 15, 17, 13, 15, 16, 13,	 14, 19, 20, 10, 19, 21,	 19, 14, 16, 19, 16, 13,	 13, 14, 15, 15, 10, 14,	 19, 21, 19, 20, 16, 12,	 18, 10, 11, 21, 15, 21,	 17, 11, 11, 15, 15, 12,	 18, 12, 16, 13, 10, 11,	
 20, 17, 19, 17, 14, 19,	 21, 11, 18, 19, 14, 12,	 13, 10, 16, 19, 13, 10,	 18, 20, 15, 19, 17, 21,	 21, 14, 15, 20, 21, 19,	 13, 11, 14, 10, 11, 10,	 19, 10, 12, 19, 11, 20,	 13, 15, 20, 20, 12, 15,	 12, 12, 14, 21, 10, 13,	 20, 13, 17, 18, 11, 20,	
 17, 10, 22, 20, 10, 13,	 22, 23, 21, 18, 20, 17,	 20, 22, 10, 18, 12, 10,	 12, 20, 16, 12, 19, 20,	 17, 18, 10, 11, 22, 17,	 23, 15, 16, 21, 11, 16,	 22, 22, 16, 20, 16, 10,	 11, 11, 20, 23, 17, 22,	 23, 19, 16, 15, 21, 12,	 10, 13, 18, 10, 14, 16,	
 15, 11, 19, 21, 21, 19,	 12, 19, 17, 16, 13, 21,	 14, 14, 20, 11, 11, 14,	 21, 10, 21, 14, 14, 17,	 16, 14, 20, 22, 12, 10,	 12, 17, 11, 21, 13, 20,	 14, 15, 16, 19, 19, 19,	 15, 21, 22, 11, 22, 23,	 13, 20, 10, 23, 10, 14,	 16, 14, 16, 10, 12, 18,	
 16, 17, 13, 21, 18, 13,	 19, 22, 19, 12, 13, 16,	 10, 17, 15, 16, 19, 17,	 12, 14, 12, 12, 14, 16,	 12, 17, 12, 13, 19, 14,	 22, 12, 10, 12, 13, 21,	 18, 22, 20, 16, 11, 12,	 10, 13, 20, 17, 20, 18,	 11, 11, 22, 14, 15, 14,	 22, 17, 10, 14, 22, 20,	
 17, 16, 21, 10, 22, 19,	 14, 15, 13, 22, 14, 19,	 11, 15, 19, 15, 12, 10,	 21, 15, 20, 15, 11, 19,	 11, 20, 23, 13, 21, 12,	 20, 12, 16, 16, 12, 14,	 11, 16, 18, 15, 12, 22,	 22, 12, 11, 17, 17, 11,	 15, 13, 16, 11, 18, 16,	 18, 19, 12, 17, 22, 21,	
 16, 24, 14, 12, 19, 16,	 12, 13, 11, 24, 22, 20,	 13, 12, 17, 17, 13, 25,	 10, 20, 20, 26, 23, 12,	 20, 19, 23, 12, 21, 21,	 14, 11, 18, 19, 21, 10,	 25, 23, 21, 17, 11, 17,	 18, 22, 10, 25, 12, 13,	 24, 20, 14, 17, 20, 19,	 11, 21, 11, 15, 24, 13,	
 16, 15, 13, 16, 18, 11,	 11, 19, 14, 19, 15, 14,	 10, 13, 19, 21, 15, 18,	 19, 13, 14, 13, 16, 21,	 19, 17, 19, 12, 21, 19,	 13, 19, 12, 21, 14, 13,	 10, 15, 14, 14, 12, 19,	 10, 16, 11, 20, 15, 20,	 20, 13, 11, 16, 20, 17,	 20, 21, 17, 17, 15, 16,	
 22, 12, 13, 18, 17, 19,	 19, 19, 23, 18, 22, 13,	 11, 14, 12, 22, 14, 21,	 16, 20, 14, 15, 15, 16,	 17, 11, 17, 10, 16, 20,	 12, 14, 23, 15, 20, 14,	 23, 14, 22, 22, 22, 20,	 11, 23, 22, 11, 20, 11,	 21, 10, 19, 11, 14, 10,	 16, 21, 11, 23, 19, 17,	
 11, 16, 15, 12, 20, 21,	 18, 22, 15, 15, 18, 17,	 11, 17, 14, 16, 17, 11,	 18, 17, 10, 13, 17, 10,	 11, 21, 22, 13, 11, 22,	 19, 14, 15, 11, 18, 12,	 11, 16, 14, 18, 21, 11,	 12, 12, 18, 17, 18, 13,	 20, 13, 20, 22, 18, 16,	 22, 19, 16, 10, 12, 18,	
 15, 19, 18, 12, 20, 12,	 18, 16, 15, 11, 13, 11,	 11, 15, 21, 11, 10, 13,	 15, 16, 14, 16, 11, 16,	 15, 17, 16, 10, 15, 15,	 18, 12, 12, 19, 15, 11,	 13, 15, 21, 18, 16, 12,	 19, 17, 17, 19, 10, 21,	 14, 19, 20, 19, 14, 13,	 13, 11, 20, 11, 15, 13,	
 21, 19, 10, 11, 10, 18,	 16, 15, 11, 11, 10, 10,	 20, 10, 14, 18, 14, 20,	 16, 12, 18, 12, 15, 22,	 17, 10, 12, 21, 17, 19,	 11, 17, 17, 13, 21, 19,	 21, 14, 11, 11, 18, 11,	 11, 17, 11, 17, 14, 18,	 14, 20, 22, 12, 11, 14,	 13, 20, 14, 16, 19, 10,	
 20, 17, 21, 12, 25, 12,	 19, 16, 21, 20, 15, 12,	 11, 16, 19, 25, 22, 22,	 12, 23, 11, 16, 19, 14,	 22, 22, 24, 13, 22, 25,	 11, 16, 16, 22, 18, 15,	 24, 11, 21, 19, 21, 10,	 22, 22, 16, 15, 22, 13,	 11, 24, 10, 13, 15, 19,	 17, 11, 15, 15, 15, 12,	
  0,  0,  0,  0,  0,  0,	  0,  0,  0,  0,  0,  0,	  0,  0,  0,  0,  0,  0,	  0,  0,  0,  0,  0,  0,	  0,  0,  0,  0,  0,  0,	  0,  0,  0,  0,  0,  0,	  0,  0,  0,  0,  0,  0,	  0,  0,  0,  0,  0,  0,	  0,  0,  0,  0,  0,  0,	  0,  0,  0,  0,  0,  0,	
]);

rs =
[|  true,  true,  true,  true,  true,  true,	  
 | false,  false,  false,  true,  false,  false,	 	
 | false,  false,  false,  true,  false,  false,	  	
 | false,  false,  true,  false,  false,  false,	  	
 | false,  false,  false,  true,  false,  false,	  	
 | false,  false,  false,  false,  true,  false,	  	
 | false,  false,  false,  false,  false,  true,	  	
 | false,  true,  false,  false,  false,  false,	  	
 | false,  false,  false,  false,  true,  false,	  	
 | false,  false,  false,  false,  false,  true,	  	
 | false,  false,  false,  true,  false,  false,	  	
 | true,  false,  false,  false,  false,  false,	  	
 | false,  false,  false,  false,  false,  true,	  	
 | false,  false,  false,  false,  true,  false,	  	
 | false,  false,  false,  true,  false,  false,	  	
 | false,  false,  false,  false,  true,  false,	  	
 | false,  true,  false,  false,  false,  false,	  	
 | false,  false,  false,  false,  true,  false,	  	
 | true,  false,  false,  false,  false,  false,	 	
 | false,  false,  false,  true,  false,  false,	  	
 | false,  false,  false,  true,  false,  false,	 	
 | false,  false,  false,  false,  false,  true,	 
 | false,  false,  false,  false,  false,  true,	  	
 | false,  false,  false,  false,  false,  true,	  	
 | false,  false,  false,  false,  true,  false,	 	
 | true,  false,  false,  false,  false,  false,	  	
 | false,  false,  false,  true,  false,  false,	  	
 | true,  false,  false,  false,  false,  false,	  	
 | true,  false,  false,  false,  false,  false,	  	
 | false,  false,  false,  false,  true,  false,	  	
 | false,  false,  false,  false,  false,  true,	 	
 | true,  true,  true,  true,  true,  true,	 
|];

d=[|0, 12, 10, 21, 24, 28, 23, 2, 23, 3, 0, 12, 17, 5, 3, 16, 20, 10, 27, 15, 28, 19, 21, 1, 5, 5, 0, 4, 27, 16, 17, 0, 
|12, 0, 2, 9, 31, 17, 27, 12, 31, 9, 12, 23, 18, 15, 9, 6, 17, 17, 39, 27, 25, 13, 32, 13, 15, 8, 12, 16, 39, 17, 17, 12, 
|10, 2, 0, 11, 30, 19, 27, 10, 29, 7, 10, 21, 18, 13, 7, 7, 18, 15, 37, 25, 26, 13, 30, 11, 13, 6, 10, 14, 37, 17, 16, 10, 
|21, 9, 11, 0, 38, 10, 33, 21, 39, 18, 21, 32, 24, 24, 18, 7, 20, 25, 48, 36, 27, 13, 40, 22, 24, 17, 21, 25, 48, 23, 22, 21, 
|24, 31, 30, 38, 0, 39, 8, 22, 41, 27, 24, 14, 15, 18, 27, 37, 22, 32, 31, 20, 23, 43, 11, 24, 18, 24, 24, 22, 33, 15, 41, 24, 
|28, 17, 19, 10, 39, 0, 32, 27, 48, 26, 28, 36, 24, 29, 26, 18, 18, 34, 55, 42, 22, 24, 44, 29, 29, 23, 28, 31, 55, 24, 32, 28, 
|23, 27, 27, 33, 8, 32, 0, 21, 44, 25, 23, 17, 9, 18, 26, 34, 14, 33, 37, 24, 14, 40, 18, 24, 18, 22, 23, 23, 39, 9, 40, 23, 
|2, 12, 10, 21, 22, 27, 21, 0, 25, 4, 2, 11, 15, 4, 5, 16, 18, 12, 28, 15, 26, 20, 20, 3, 4, 4, 2, 4, 28, 14, 18, 2, 
|23, 31, 29, 39, 41, 48, 44, 25, 0, 23, 23, 27, 39, 26, 23, 31, 43, 14, 20, 21, 51, 29, 32, 21, 26, 27, 23, 21, 17, 38, 18, 23, 
|3, 9, 7, 18, 27, 26, 25, 4, 23, 0, 3, 15, 18, 8, 1, 13, 20, 9, 30, 18, 28, 16, 24, 4, 8, 4, 3, 7, 30, 17, 14, 3, 
|0, 12, 10, 21, 24, 28, 23, 2, 23, 3, 0, 12, 17, 5, 3, 16, 20, 10, 27, 15, 28, 19, 21, 1, 5, 5, 0, 4, 27, 16, 17, 0, 
|12, 23, 21, 32, 14, 36, 17, 11, 27, 15, 12, 0, 16, 8, 16, 28, 23, 18, 21, 7, 28, 32, 8, 12, 8, 15, 12, 9, 22, 15, 28, 12, 
|17, 18, 18, 24, 15, 24, 9, 15, 39, 18, 17, 16, 0, 12, 19, 25, 7, 27, 37, 23, 12, 31, 21, 18, 12, 14, 17, 17, 38, 1, 32, 17, 
|5, 15, 13, 24, 18, 29, 18, 4, 26, 8, 5, 8, 12, 0, 9, 20, 17, 15, 26, 13, 24, 25, 16, 6, 0, 7, 5, 5, 27, 11, 22, 5, 
|3, 9, 7, 18, 27, 26, 26, 5, 23, 1, 3, 16, 19, 9, 0, 13, 21, 8, 29, 18, 29, 16, 25, 4, 9, 5, 3, 7, 29, 18, 13, 3, 
|16, 6, 7, 7, 37, 18, 34, 16, 31, 13, 16, 28, 25, 20, 13, 0, 23, 18, 42, 31, 31, 7, 37, 17, 20, 13, 16, 20, 41, 24, 14, 16, 
|20, 17, 18, 20, 22, 18, 14, 18, 43, 20, 20, 23, 7, 17, 21, 23, 0, 30, 44, 29, 8, 30, 28, 21, 17, 16, 20, 22, 45, 7, 34, 20, 
|10, 17, 15, 25, 32, 34, 33, 12, 14, 9, 10, 18, 27, 15, 8, 18, 30, 0, 25, 17, 38, 18, 26, 9, 15, 13, 10, 10, 24, 26, 10, 10, 
|27, 39, 37, 48, 31, 55, 37, 28, 20, 30, 27, 21, 37, 26, 29, 42, 44, 25, 0, 14, 49, 43, 20, 26, 26, 32, 27, 23, 3, 36, 34, 27, 
|15, 27, 25, 36, 20, 42, 24, 15, 21, 18, 15, 7, 23, 13, 18, 31, 29, 17, 14, 0, 35, 33, 10, 14, 13, 19, 15, 11, 15, 22, 27, 15, 
|28, 25, 26, 27, 23, 22, 14, 26, 51, 28, 28, 28, 12, 24, 29, 31, 8, 38, 49, 35, 0, 38, 31, 29, 24, 24, 28, 29, 51, 13, 42, 28, 
|19, 13, 13, 13, 43, 24, 40, 20, 29, 16, 19, 32, 31, 25, 16, 7, 30, 18, 43, 33, 38, 0, 41, 20, 25, 18, 19, 23, 42, 30, 10, 19, 
|21, 32, 30, 40, 11, 44, 18, 20, 32, 24, 21, 8, 21, 16, 25, 37, 28, 26, 20, 10, 31, 41, 0, 21, 16, 24, 21, 18, 22, 20, 36, 21, 
|1, 13, 11, 22, 24, 29, 24, 3, 21, 4, 1, 12, 18, 6, 4, 17, 21, 9, 26, 14, 29, 20, 21, 0, 6, 6, 1, 3, 26, 17, 16, 1, 
|5, 15, 13, 24, 18, 29, 18, 4, 26, 8, 5, 8, 12, 0, 9, 20, 17, 15, 26, 13, 24, 25, 16, 6, 0, 7, 5, 5, 27, 11, 22, 5, 
|5, 8, 6, 17, 24, 23, 22, 4, 27, 4, 5, 15, 14, 7, 5, 13, 16, 13, 32, 19, 24, 18, 24, 6, 7, 0, 5, 8, 32, 13, 18, 5, 
|0, 12, 10, 21, 24, 28, 23, 2, 23, 3, 0, 12, 17, 5, 3, 16, 20, 10, 27, 15, 28, 19, 21, 1, 5, 5, 0, 4, 27, 16, 17, 0, 
|4, 16, 14, 25, 22, 31, 23, 4, 21, 7, 4, 9, 17, 5, 7, 20, 22, 10, 23, 11, 29, 23, 18, 3, 5, 8, 4, 0, 24, 16, 19, 4, 
|27, 39, 37, 48, 33, 55, 39, 28, 17, 30, 27, 22, 38, 27, 29, 41, 45, 24, 3, 15, 51, 42, 22, 26, 27, 32, 27, 24, 0, 38, 33, 27, 
|16, 17, 17, 23, 15, 24, 9, 14, 38, 17, 16, 15, 1, 11, 18, 24, 7, 26, 36, 22, 13, 30, 20, 17, 11, 13, 16, 16, 38, 0, 31, 16, 
|17, 17, 16, 22, 41, 32, 40, 18, 18, 14, 17, 28, 32, 22, 13, 14, 34, 10, 34, 27, 42, 10, 36, 16, 22, 18, 17, 19, 33, 31, 0, 17, 
|0, 12, 10, 21, 24, 28, 23, 2, 23, 3, 0, 12, 17, 5, 3, 16, 20, 10, 27, 15, 28, 19, 21, 1, 5, 5, 0, 4, 27, 16, 17, 0, 
|];
